
Gurobi 13.0.0 (linux64) logging started Wed Nov 19 19:03:57 2025

Set parameter LogFile to value "outputs/gurobi_log_baseline.txt"
Gurobi Optimizer version 13.0.0 build v13.0.0rc1 (linux64 - "Ubuntu 22.04.4 LTS")

CPU model: Intel(R) Xeon(R) CPU @ 2.20GHz, instruction set [SSE2|AVX|AVX2]
Thread count: 1 physical cores, 2 logical processors, using up to 2 threads

Optimize a model with 315 rows, 204 columns and 639 nonzeros (Min)
Model fingerprint: 0xe3679b90
Model has 204 linear objective coefficients
Variable types: 0 continuous, 204 integer (0 binary)
Coefficient statistics:
  Matrix range     [1e-01, 4e+04]
  Objective range  [2e+02, 4e+04]
  Bounds range     [0e+00, 0e+00]
  RHS range        [2e+00, 6e+06]
Presolve removed 246 rows and 41 columns
Presolve time: 0.00s
Presolved: 69 rows, 163 columns, 326 nonzeros
Variable types: 0 continuous, 163 integer (1 binary)
Found heuristic solution: objective 8094152.5224

Root relaxation: objective 4.435957e+06, 73 iterations, 0.00 seconds (0.00 work units)

    Nodes    |    Current Node    |     Objective Bounds      |     Work
 Expl Unexpl |  Obj  Depth IntInf | Incumbent    BestBd   Gap | It/Node Time

     0     0 4435956.58    0   45 8094152.52 4435956.58  45.2%     -    0s
H    0     0                    7419152.5224 4435956.58  40.2%     -    0s
H    0     0                    4561272.5053 4435956.58  2.75%     -    0s
H    0     0                    4545044.8994 4435956.58  2.40%     -    0s
H    0     0                    4502239.1156 4435956.58  1.47%     -    0s
H    0     0                    4495880.8322 4435956.58  1.33%     -    0s
H    0     0                    4495408.2227 4435956.58  1.32%     -    0s
H    0     0                    4494707.3392 4435956.58  1.31%     -    0s
     0     0 4479151.78    0   14 4494707.34 4479151.78  0.35%     -    0s
H    0     0                    4494460.2558 4479465.15  0.33%     -    0s
H    0     0                    4494390.4030 4479465.15  0.33%     -    0s
     0     0 4479465.15    0   14 4494390.40 4479465.15  0.33%     -    0s
     0     0 4482885.03    0   21 4494390.40 4482885.03  0.26%     -    0s
     0     0 4483115.83    0   20 4494390.40 4483115.83  0.25%     -    0s
     0     0 4483627.53    0   11 4494390.40 4483627.53  0.24%     -    0s
H    0     0                    4493974.1023 4483649.26  0.23%     -    0s
H    0     0                    4493134.7123 4483649.26  0.21%     -    0s
H    0     0                    4491092.2721 4483649.26  0.17%     -    0s
H    0     0                    4490016.0889 4483649.26  0.14%     -    0s
     0     0 4483649.26    0   12 4490016.09 4483649.26  0.14%     -    0s
     0     0 4483649.47    0   12 4490016.09 4483649.47  0.14%     -    0s
     0     0 4483649.47    0   29 4490016.09 4483649.47  0.14%     -    0s
     0     0 4484667.18    0   18 4490016.09 4484667.18  0.12%     -    0s
     0     0 4484777.83    0   16 4490016.09 4484777.83  0.12%     -    0s
     0     0 4484812.04    0   14 4490016.09 4484812.04  0.12%     -    0s
     0     0 4484831.46    0   10 4490016.09 4484831.46  0.12%     -    0s
     0     0 4484985.54    0    9 4490016.09 4484985.54  0.11%     -    0s
     0     0 4485040.45    0   10 4490016.09 4485040.45  0.11%     -    0s
     0     0 4485448.78    0    6 4490016.09 4485448.78  0.10%     -    0s
     0     0 4485470.20    0    3 4490016.09 4485470.20  0.10%     -    0s
     0     0 4485470.20    0    3 4490016.09 4485470.20  0.10%     -    0s
     0     0 4485470.20    0    3 4490016.09 4485470.20  0.10%     -    0s
H    0     0                    4489858.6369 4485470.20  0.10%     -    0s
H    0     0                    4489241.8192 4485470.20  0.08%     -    0s
     0     0 4485470.20    0   22 4489241.82 4485470.20  0.08%     -    0s
     0     0 4485470.20    0   12 4489241.82 4485470.20  0.08%     -    0s
     0     0 4485470.20    0    6 4489241.82 4485470.20  0.08%     -    0s
     0     0 4485470.20    0    3 4489241.82 4485470.20  0.08%     -    0s
     0     0 4485629.31    0    2 4489241.82 4485629.31  0.08%     -    0s
     0     0 4485643.33    0    5 4489241.82 4485643.33  0.08%     -    0s
     0     0 4485647.46    0    5 4489241.82 4485647.46  0.08%     -    0s
     0     0 4485647.46    0    5 4489241.82 4485647.46  0.08%     -    0s
     0     2 4485647.46    0    5 4489241.82 4485647.46  0.08%     -    0s

Cutting planes:
  Gomory: 8
  MIR: 15
  StrongCG: 5

Explored 130 nodes (499 simplex iterations) in 0.57 seconds (0.02 work units)
Thread count was 2 (of 2 available processors)

Solution count 10: 4.48924e+06 4.48986e+06 4.49002e+06 ... 4.49541e+06

Optimal solution found (tolerance 1.00e-04)
Best objective 4.489241819220e+06, best bound 4.488816911048e+06, gap 0.0095%
